60919
103,125,133,268,478,588,642,733,883,997,1096,1119,1233,1291,1333,1839,1964,2003,2061,2078,2143,2211,2217,2286,2447,2563,2591,2633,2638,2695,2723,3053,3068,3095,3432,3509,3537,3683,3808,3910,3989,4014,4110,4194,4289,4371,4379,4384,4418,4423,4476,4522,4543,4566,4591,4672,4748,4759,4832,4897,4938,5006,5091,5123,5195,5360,5501,5648,5711,5792,5875,6020,6089,6115,6173,6296,6494,6557,6585,6746,6759,7039,7124,7204,7302,7494,7528,7728,7810,7846,7938,8009,8052,8088,8190,8434,8584,8593,8674,8717,8843,8876,8917,8958,9024,9158,9189,9306,9514,9567,9592,9697,9868,9869
